NAME = SAfile180,
TOURSIZE = 180,
LENGTH = 4330,
18,136,91,98,10,97,4,50,23,70,38,63,20,68,3,34,110,111,8,21,30,51,48,81,62,72,64,66,123,124,95,109,43,139,35,84,103,176,180,58,83,171,45,172,96,170,41,155,61,162,115,165,116,158,108,157,151,161,127,146,106,166,179,121,156,2,7,178,47,177,104,175,173,174,130,169,55,5,9,101,126,33,125,100,143,17,19,6,22,12,16,36,37,40,46,1,11,71,140,57,99,119,74,78,14,168,89,154,87,148,59,144,133,142,122,134,29,152,102,129,67,131,138,42,128,77,137,24,159,153,60,25,88,69,105,82,85,26,94,13,80,52,135,107,149,15,147,132,150,54,164,76,53,73,28,117,49,112,65,93,79,113,32,56,86,92,160,145,163,120,39,75,167,90,27,141,31,118,44,114